n = 100000000;
m = 5;
p = [19996453,19995308,19995315,20008323,20004601];
v = [0.014,0.093,0.276,0.582,0.836];
ce = [11.525,11.54,16.446,3.478,9.806];
c = [|0.0,1.73,4.622,0.67,3.594
  |2.688,0.0,0.286,4.171,0.414
  |1.53,2.214,0.0,3.667,0.141
  |4.865,3.077,1.51,0.0,1.498
  |4.212,3.609,3.105,1.766,0.0|];
ct = 20000000.0;
MaxMovs = 100000000;
